64 



























































































37 55 69 73 95 
114 34 20 101 1 
6 98 97 36 15 
8 85 50 59 10 
11 41 47 22 88 51 
94 86 16 18 75 
2 4 78 92 26 
107 109 68 63 24 0 
28 105 17 7 21 
84 40 49 106 89 
65 82 80 46 93 
81 19 42 112 35 45 
48 12 32 99 
74 90 5 54 108 
29 100 14 70 66 44 
56 62 104 79 102 
96 57 77 25 30 
31 58 52 113 43 

33 111 9 83 3 
27 53 110 87 67 103 
76 72 60 13 61 
23 71 38 39 91 
